Total weight: 1325.1
Route 1: 0 42 44 39 72 94 95 56 66 90 0 
Route 2: 0 5 45 2 88 53 11 15 16 47 14 59 86 57 22 49 20 51 85 84 50 32 26 34 93 96 91 80 0 
Route 3: 0 19 18 30 28 27 29 31 67 71 38 36 40 43 41 37 35 54 0 
Route 4: 0 65 83 64 62 33 63 76 21 23 75 87 10 12 78 73 79 7 6 8 46 3 1 4 60 55 100 70 68 0 
Route 5: 0 69 98 82 99 52 9 13 17 97 74 58 77 25 48 89 24 0 
Route 6: 0 92 81 61 0 
